This is Ipopt version 3.14.16, running with linear solver MUMPS 5.7.3.

Number of nonzeros in equality constraint Jacobian...:        0
Number of nonzeros in inequality constraint Jacobian.:     1092
Number of nonzeros in Lagrangian Hessian.............:        0

Total number of variables............................:       21
                     variables with only lower bounds:        0
                variables with lower and upper bounds:       21
                     variables with only upper bounds:        0
Total number of equality constraints.................:        0
Total number of inequality constraints...............:       52
        inequality constraints with only lower bounds:        0
   inequality constraints with lower and upper bounds:        0
        inequality constraints with only upper bounds:       52

iter    objective    inf_pr   inf_du lg(mu)  ||d||  lg(rg) alpha_du alpha_pr  ls
   0  1.6722713e-02 3.55e-02 6.81e-01   0.0 0.00e+00    -  0.00e+00 0.00e+00   0
   1  1.6822105e-02 0.00e+00 1.12e-01  -5.9 2.75e-02    -  8.98e-01 1.00e+00h  1
   2  1.6822997e-02 0.00e+00 7.24e-04  -6.9 4.60e-04    -  9.90e-01 1.00e+00h  1
   3  1.6805960e-02 0.00e+00 2.73e-04  -8.9 3.09e-02    -  9.66e-01 1.00e+00h  1
   4  1.6777123e-02 3.12e-03 1.93e-04  -6.0 8.34e-02    -  1.00e+00 1.00e+00h  1
   5  1.6807107e-02 1.81e-03 4.25e-04  -5.6 1.16e-01    -  1.00e+00 1.00e+00h  1
   6  1.6790588e-02 9.04e-04 7.74e-05  -5.7 4.36e-02    -  1.00e+00 1.00e+00h  1
   7  1.6772079e-02 1.53e-04 5.13e-05  -6.2 2.73e-02    -  1.00e+00 1.00e+00h  1
   8  1.6749054e-02 4.44e-03 6.07e-05  -6.3 1.18e-01    -  1.00e+00 1.00e+00h  1
   9  1.6751389e-02 9.61e-04 6.90e-05  -6.7 3.26e-02    -  9.96e-01 1.00e+00h  1
iter    objective    inf_pr   inf_du lg(mu)  ||d||  lg(rg) alpha_du alpha_pr  ls
  10  1.6760984e-02 5.83e-04 7.75e-05  -6.2 4.66e-02    -  7.46e-01 1.00e+00h  1
  11  1.6750852e-02 6.53e-04 1.21e-05  -6.8 4.53e-02    -  1.00e+00 1.00e+00h  1
  12  1.6746120e-02 6.28e-04 1.29e-05  -7.7 3.54e-02    -  9.98e-01 1.00e+00h  1
  13  1.6746724e-02 7.57e-05 1.52e-05  -7.9 1.49e-02    -  1.00e+00 1.00e+00h  1

Number of Iterations....: 13

                                   (scaled)                 (unscaled)
Objective...............:   1.6746724214787928e-02    1.6746724214787928e-02
Dual infeasibility......:   1.5168152201529183e-05    1.5168152201529183e-05
Constraint violation....:   7.5743513758769491e-05    7.5743513758769491e-05
Variable bound violation:   0.0000000000000000e+00    0.0000000000000000e+00
Complementarity.........:   1.4922809163091287e-08    1.4922809163091287e-08
Overall NLP error.......:   7.5743513758769491e-05    7.5743513758769491e-05


Number of objective function evaluations             = 14
Number of objective gradient evaluations             = 14
Number of equality constraint evaluations            = 0
Number of inequality constraint evaluations          = 14
Number of equality constraint Jacobian evaluations   = 0
Number of inequality constraint Jacobian evaluations = 14
Number of Lagrangian Hessian evaluations             = 0
Total seconds in IPOPT                               = 16.738

EXIT: Optimal Solution Found.
